benchmarks/crosswords/mzn/crossword3_18.res
REGULAR
REGULAR
REGULAR
REGULAR
REGULAR
REGULAR
REGULAR
REGULAR
REGULAR
REGULAR
REGULAR
REGULAR
REGULAR
REGULAR
REGULAR
REGULAR
REGULAR
REGULAR
REGULAR
REGULAR
REGULAR
REGULAR
REGULAR
REGULAR
REGULAR
REGULAR
REGULAR
REGULAR
REGULAR
REGULAR
REGULAR
REGULAR
REGULAR
REGULAR
REGULAR
REGULAR
REGULAR
REGULAR
REGULAR
REGULAR
REGULAR
REGULAR
REGULAR
REGULAR
REGULAR
REGULAR
REGULAR
REGULAR
REGULAR
REGULAR
REGULAR
REGULAR
REGULAR
REGULAR
REGULAR
REGULAR
REGULAR
REGULAR
REGULAR
REGULAR
REGULAR
REGULAR
REGULAR
REGULAR
REGULAR
REGULAR
REGULAR
REGULAR
REGULAR
REGULAR
REGULAR
REGULAR
REGULAR
REGULAR
REGULAR
REGULAR
REGULAR
REGULAR
REGULAR
REGULAR
REGULAR
REGULAR
L = array1d(0..187, [1, 18, 1, 5, 18, 1, 4, 12, 9, 8, 1, 4, 4, 5, 1, 18, 7, 1, 13, 9, 1, 12, 3, 20, 14, 5, 18, 12, 1, 1, 2, 13, 1, 19, 19, 1, 18, 5, 19, 21, 1, 3, 3, 1, 12, 1, 13, 5, 5, 14, 1, 23, 21, 19, 12, 1, 7, 12, 21, 2, 1, 11, 24, 25, 12, 1, 3, 4, 1, 13, 13, 1, 5, 20, 19, 5, 18, 1, 13, 5, 1, 18, 2, 1, 10, 14, 21, 16, 19, 14, 9, 12, 21, 6, 5, 20, 1, 8, 5, 2, 1, 19, 5, 18, 4, 1, 3, 4, 1, 3, 4, 12, 5, 8, 5, 8, 20, 1, 2, 5, 5, 2, 4, 5, 9, 18, 3, 8, 1, 20, 1, 6, 1, 1, 2, 9, 4, 18, 1, 3, 1, 2, 14, 21, 7, 20, 15, 8, 19, 14, 9, 1, 12, 2, 5, 12, 1, 3, 1, 4, 1, 4, 15, 13, 13, 1, 1, 13, 15, 18, 1, 12, 12, 5, 4, 20, 1, 15, 7, 18, 1, 3, 9, 22, 6, 1, 12, 15]);
----------

%%  runtime:       7.212 (7212.810 ms)
%%  solvetime:     0.114 (114.265 ms)
%%  solutions:     1
%%  variables:     11041
%%  propagators:   14256
%%  propagations:  153867
%%  nodes:         116
%%  failures:      18
%%  restarts:      0
%%  peak depth:    87

GECODE_TUPLESET_MEM
GECODE_TUPLESET_MEM
GECODE_TUPLESET_MEM
GECODE_TUPLESET_MEM
GECODE_TUPLESET_MEM
GECODE_TUPLESET_MEM
GECODE_TUPLESET_MEM
GECODE_TUPLESET_MEM
GECODE_TUPLESET_MEM
GECODE_TUPLESET_MEM
GECODE_TUPLESET_MEM
GECODE_TUPLESET_MEM
GECODE_TUPLESET_MEM
GECODE_TUPLESET_MEM
GECODE_TUPLESET_MEM
GECODE_TUPLESET_MEM
GECODE_TUPLESET_MEM
GECODE_TUPLESET_MEM
GECODE_TUPLESET_MEM
GECODE_TUPLESET_MEM
GECODE_TUPLESET_MEM
GECODE_TUPLESET_MEM
GECODE_TUPLESET_MEM
GECODE_TUPLESET_MEM
GECODE_TUPLESET_MEM
GECODE_TUPLESET_MEM
GECODE_TUPLESET_MEM
GECODE_TUPLESET_MEM
GECODE_TUPLESET_MEM
GECODE_TUPLESET_MEM
GECODE_TUPLESET_MEM
GECODE_TUPLESET_MEM
GECODE_TUPLESET_MEM
GECODE_TUPLESET_MEM
GECODE_TUPLESET_MEM
GECODE_TUPLESET_MEM
GECODE_TUPLESET_MEM
GECODE_TUPLESET_MEM
GECODE_TUPLESET_MEM
GECODE_TUPLESET_MEM
GECODE_TUPLESET_MEM
GECODE_TUPLESET_MEM
GECODE_TUPLESET_MEM
GECODE_TUPLESET_MEM
GECODE_TUPLESET_MEM
GECODE_TUPLESET_MEM
GECODE_TUPLESET_MEM
GECODE_TUPLESET_MEM
GECODE_TUPLESET_MEM
GECODE_TUPLESET_MEM
GECODE_TUPLESET_MEM
GECODE_TUPLESET_MEM
GECODE_TUPLESET_MEM
GECODE_TUPLESET_MEM
GECODE_TUPLESET_MEM
GECODE_TUPLESET_MEM
GECODE_TUPLESET_MEM
GECODE_TUPLESET_MEM
GECODE_TUPLESET_MEM
GECODE_TUPLESET_MEM
GECODE_TUPLESET_MEM
GECODE_TUPLESET_MEM
GECODE_TUPLESET_MEM
GECODE_TUPLESET_MEM
GECODE_TUPLESET_MEM
GECODE_TUPLESET_MEM
GECODE_TUPLESET_MEM
GECODE_TUPLESET_MEM
GECODE_TUPLESET_MEM
GECODE_TUPLESET_MEM
GECODE_TUPLESET_MEM
GECODE_TUPLESET_MEM
GECODE_TUPLESET_MEM
GECODE_TUPLESET_MEM
GECODE_TUPLESET_MEM
GECODE_TUPLESET_MEM
GECODE_TUPLESET_MEM
GECODE_TUPLESET_MEM
GECODE_TUPLESET_MEM
GECODE_TUPLESET_MEM
GECODE_TUPLESET_MEM
GECODE_TUPLESET_MEM
L = array1d(0..187, [1, 8, 1, 6, 20, 2, 1, 8, 9, 1, 16, 19, 19, 20, 15, 14, 12, 25, 1, 18, 1, 2, 19, 9, 15, 20, 1, 19, 14, 1, 16, 19, 1, 4, 1, 20, 3, 12, 1, 14, 20, 1, 24, 9, 3, 1, 2, 4, 15, 3, 11, 9, 14, 7, 3, 1, 12, 3, 1, 14, 1, 12, 11, 5, 2, 1, 2, 8, 1, 14, 2, 5, 12, 12, 1, 8, 5, 1, 12, 7, 1, 2, 4, 1, 4, 15, 5, 19, 1, 18, 1, 16, 1, 12, 1, 20, 1, 12, 16, 15, 9, 14, 9, 5, 3, 5, 19, 14, 1, 2, 2, 5, 12, 1, 19, 5, 4, 1, 14, 18, 1, 7, 1, 12, 4, 1, 14, 19, 1, 4, 5, 19, 1, 12, 1, 3, 15, 3, 8, 12, 5, 1, 3, 8, 9, 2, 3, 8, 1, 1, 19, 8, 5, 1, 12, 7, 1, 5, 2, 1, 1, 12, 19, 12, 1, 23, 12, 12, 1, 13, 1, 5, 18, 14, 1, 5, 15, 14, 19, 20, 25, 16, 5, 4, 4, 1, 4, 19]);
----------

%%  runtime:       0.796 (796.629 ms)
%%  solvetime:     0.097 (97.232 ms)
%%  solutions:     1
%%  variables:     11041
%%  propagators:   14256
%%  propagations:  121319
%%  nodes:         114
%%  failures:      11
%%  restarts:      0
%%  peak depth:    98

GECODE_TUPLESET_SPEED
GECODE_TUPLESET_SPEED
GECODE_TUPLESET_SPEED
GECODE_TUPLESET_SPEED
GECODE_TUPLESET_SPEED
GECODE_TUPLESET_SPEED
GECODE_TUPLESET_SPEED
GECODE_TUPLESET_SPEED
GECODE_TUPLESET_SPEED
GECODE_TUPLESET_SPEED
GECODE_TUPLESET_SPEED
GECODE_TUPLESET_SPEED
GECODE_TUPLESET_SPEED
GECODE_TUPLESET_SPEED
GECODE_TUPLESET_SPEED
GECODE_TUPLESET_SPEED
GECODE_TUPLESET_SPEED
GECODE_TUPLESET_SPEED
GECODE_TUPLESET_SPEED
GECODE_TUPLESET_SPEED
GECODE_TUPLESET_SPEED
GECODE_TUPLESET_SPEED
GECODE_TUPLESET_SPEED
GECODE_TUPLESET_SPEED
GECODE_TUPLESET_SPEED
GECODE_TUPLESET_SPEED
GECODE_TUPLESET_SPEED
GECODE_TUPLESET_SPEED
GECODE_TUPLESET_SPEED
GECODE_TUPLESET_SPEED
GECODE_TUPLESET_SPEED
GECODE_TUPLESET_SPEED
GECODE_TUPLESET_SPEED
GECODE_TUPLESET_SPEED
GECODE_TUPLESET_SPEED
GECODE_TUPLESET_SPEED
GECODE_TUPLESET_SPEED
GECODE_TUPLESET_SPEED
GECODE_TUPLESET_SPEED
GECODE_TUPLESET_SPEED
GECODE_TUPLESET_SPEED
GECODE_TUPLESET_SPEED
GECODE_TUPLESET_SPEED
GECODE_TUPLESET_SPEED
GECODE_TUPLESET_SPEED
GECODE_TUPLESET_SPEED
GECODE_TUPLESET_SPEED
GECODE_TUPLESET_SPEED
GECODE_TUPLESET_SPEED
GECODE_TUPLESET_SPEED
GECODE_TUPLESET_SPEED
GECODE_TUPLESET_SPEED
GECODE_TUPLESET_SPEED
GECODE_TUPLESET_SPEED
GECODE_TUPLESET_SPEED
GECODE_TUPLESET_SPEED
GECODE_TUPLESET_SPEED
GECODE_TUPLESET_SPEED
GECODE_TUPLESET_SPEED
GECODE_TUPLESET_SPEED
GECODE_TUPLESET_SPEED
GECODE_TUPLESET_SPEED
GECODE_TUPLESET_SPEED
GECODE_TUPLESET_SPEED
GECODE_TUPLESET_SPEED
GECODE_TUPLESET_SPEED
GECODE_TUPLESET_SPEED
GECODE_TUPLESET_SPEED
GECODE_TUPLESET_SPEED
GECODE_TUPLESET_SPEED
GECODE_TUPLESET_SPEED
GECODE_TUPLESET_SPEED
GECODE_TUPLESET_SPEED
GECODE_TUPLESET_SPEED
GECODE_TUPLESET_SPEED
GECODE_TUPLESET_SPEED
GECODE_TUPLESET_SPEED
GECODE_TUPLESET_SPEED
GECODE_TUPLESET_SPEED
GECODE_TUPLESET_SPEED
GECODE_TUPLESET_SPEED
GECODE_TUPLESET_SPEED
L = array1d(0..187, [1, 8, 1, 6, 20, 2, 1, 8, 9, 1, 16, 19, 19, 20, 15, 14, 12, 25, 1, 18, 1, 2, 19, 9, 15, 20, 1, 19, 14, 1, 16, 19, 1, 4, 1, 20, 3, 12, 1, 14, 20, 1, 24, 9, 3, 1, 2, 4, 15, 3, 11, 9, 14, 7, 3, 1, 12, 3, 1, 14, 1, 12, 11, 5, 2, 1, 2, 8, 1, 14, 2, 5, 12, 12, 1, 8, 5, 1, 12, 7, 1, 2, 4, 1, 4, 15, 5, 19, 1, 18, 1, 16, 1, 12, 1, 20, 1, 12, 16, 15, 9, 14, 9, 5, 3, 5, 19, 14, 1, 2, 2, 5, 12, 1, 19, 5, 4, 1, 14, 18, 1, 7, 1, 12, 4, 1, 14, 19, 1, 4, 5, 19, 1, 12, 1, 3, 15, 3, 8, 12, 5, 1, 3, 8, 9, 2, 3, 8, 1, 1, 19, 8, 5, 1, 12, 7, 1, 5, 2, 1, 1, 12, 19, 12, 1, 23, 12, 12, 1, 13, 1, 5, 18, 14, 1, 5, 15, 14, 19, 20, 25, 16, 5, 4, 4, 1, 4, 19]);
----------

%%  runtime:       0.789 (789.195 ms)
%%  solvetime:     0.099 (99.096 ms)
%%  solutions:     1
%%  variables:     11041
%%  propagators:   14256
%%  propagations:  122557
%%  nodes:         114
%%  failures:      11
%%  restarts:      0
%%  peak depth:    98

COMPACT_TABLE
COMPACT_TABLE
COMPACT_TABLE
COMPACT_TABLE
COMPACT_TABLE
COMPACT_TABLE
COMPACT_TABLE
COMPACT_TABLE
COMPACT_TABLE
COMPACT_TABLE
COMPACT_TABLE
COMPACT_TABLE
COMPACT_TABLE
COMPACT_TABLE
COMPACT_TABLE
COMPACT_TABLE
COMPACT_TABLE
COMPACT_TABLE
COMPACT_TABLE
COMPACT_TABLE
COMPACT_TABLE
COMPACT_TABLE
COMPACT_TABLE
COMPACT_TABLE
COMPACT_TABLE
COMPACT_TABLE
COMPACT_TABLE
COMPACT_TABLE
COMPACT_TABLE
COMPACT_TABLE
COMPACT_TABLE
COMPACT_TABLE
COMPACT_TABLE
COMPACT_TABLE
COMPACT_TABLE
COMPACT_TABLE
COMPACT_TABLE
COMPACT_TABLE
COMPACT_TABLE
COMPACT_TABLE
COMPACT_TABLE
COMPACT_TABLE
COMPACT_TABLE
COMPACT_TABLE
COMPACT_TABLE
COMPACT_TABLE
COMPACT_TABLE
COMPACT_TABLE
COMPACT_TABLE
COMPACT_TABLE
COMPACT_TABLE
COMPACT_TABLE
COMPACT_TABLE
COMPACT_TABLE
COMPACT_TABLE
COMPACT_TABLE
COMPACT_TABLE
COMPACT_TABLE
COMPACT_TABLE
COMPACT_TABLE
COMPACT_TABLE
COMPACT_TABLE
COMPACT_TABLE
COMPACT_TABLE
COMPACT_TABLE
COMPACT_TABLE
COMPACT_TABLE
COMPACT_TABLE
COMPACT_TABLE
COMPACT_TABLE
COMPACT_TABLE
COMPACT_TABLE
COMPACT_TABLE
COMPACT_TABLE
COMPACT_TABLE
COMPACT_TABLE
COMPACT_TABLE
COMPACT_TABLE
COMPACT_TABLE
COMPACT_TABLE
COMPACT_TABLE
COMPACT_TABLE
L = array1d(0..187, [1, 8, 1, 6, 20, 2, 1, 8, 9, 1, 16, 19, 19, 20, 15, 14, 12, 25, 1, 18, 1, 2, 19, 9, 15, 20, 1, 19, 14, 1, 16, 19, 1, 4, 1, 20, 3, 12, 1, 14, 20, 1, 24, 9, 3, 1, 2, 4, 15, 3, 11, 9, 14, 7, 3, 1, 12, 3, 1, 14, 1, 12, 11, 5, 2, 1, 2, 8, 1, 14, 2, 5, 12, 12, 1, 8, 5, 1, 12, 7, 1, 2, 4, 1, 4, 15, 5, 19, 1, 18, 1, 16, 1, 12, 1, 20, 1, 12, 16, 15, 9, 14, 9, 5, 3, 5, 19, 14, 1, 2, 2, 5, 12, 1, 19, 5, 4, 1, 14, 18, 1, 7, 1, 12, 4, 1, 14, 19, 1, 4, 5, 19, 1, 12, 1, 3, 15, 3, 8, 12, 5, 1, 3, 8, 9, 2, 3, 8, 1, 1, 19, 8, 5, 1, 12, 7, 1, 5, 2, 1, 1, 12, 19, 12, 1, 23, 12, 12, 1, 13, 1, 5, 18, 14, 1, 5, 15, 14, 19, 20, 25, 16, 5, 4, 4, 1, 4, 19]);
----------

%%  runtime:       0.965 (965.957 ms)
%%  solvetime:     0.035 (35.675 ms)
%%  solutions:     1
%%  variables:     11041
%%  propagators:   14256
%%  propagations:  122831
%%  nodes:         114
%%  failures:      11
%%  restarts:      0
%%  peak depth:    98

